p cnf 21 20
c 2 j
c 3 k
c 4 g
c 5 i
c 6 h
c 7 a
c 8 b
c 9 f
c 10 e
c 11 d
c 12 c
-1 0
-21 0
-18 0
-15 0
-8 0
-6 0
-3 0
-4 0
-20 0
-16 0
-13 0
-14 0
-10 0
-12 0
-17 0
-19 0
-2 5 0
-9 11 0
11 -2 0
-7 9 11 0
